161
1000000
129974
447806
876214
492560
497487
10542
243728
658308
549939
689595
183414
14236
777923
160455
550223
255866
651101
380878
222077
502840
502513
201283
503579
116791
121289
506219
113388
398896
577995
265091
86664
592636
46789
738762
489901
157438
449268
893297
5430
650459
401112
109934
150243
101332
718046
17675
407649
335112
509
223975
790531
702690
440725
677401
437979
188393
707194
364712
281954
319847
86658
654317
552194
368030
54417
257239
165250
46774
459116
85004
764333
799609
538583
97191
273185
248778
348899
530972
638881
327095
496421
170279
71151
261238
260945
259070
200391
479043
468608
900279
319462
115904
135387
123786
699057
834741
53430
453023
35119
548624
356522
995080
262965
239300
407364
672905
248209
99721
361119
116985
362009
37978
29910
482711
94601
183756
834750
235667
292806
110750
863068
461417
458502
251082
417079
174826
37529
698219
8596
342036
297310
676393
818915
689700
18456
889250
188220
165259
721367
708932
136932
541498
54941
291068
20045
289097
293824
48176
273203
981544
209469
953211
306
849757
839545
493781
4920
81862
52068
31049
970090
